370 515 589 638 705 753 760 769 808 889
0 589 492 49 410 669 798 872 753 938
82 176 259 116 492 357 508 572 673 637
234 275 669 425 337 623 572 808 908 764
149 0 393 225 280 175 919 305 430 473
58 337 168 271 590 998 82 914 443 673
49 68 0 16 126 234 270 149 359 432
108 258 16 149 187 270 623 714 843 344
280 126 70 520 240 440 828 393 954 577
175 496 123 326 515 889 425 637 234 795
